certificates/rado_a9_c67_N23.cnf
c Rad2 upper bound instance: x1 + 9*x2 - x3 = 67, interval [1,23]
p cnf 23 112
1 6 8 0
-1 -6 -8 0
1 9 15 0
-1 -9 -15 0
2 7 8 0
-2 -7 -8 0
2 9 16 0
-2 -9 -16 0
3 8 0
-3 -8 0
3 9 17 0
-3 -9 -17 0
4 8 9 0
-4 -8 -9 0
4 9 18 0
-4 -9 -18 0
1 5 7 0
-1 -5 -7 0
5 8 10 0
-5 -8 -10 0
5 9 19 0
-5 -9 -19 0
2 6 7 0
-2 -6 -7 0
6 8 11 0
-6 -8 -11 0
6 9 20 0
-6 -9 -20 0
3 7 0
-3 -7 0
7 8 12 0
-7 -8 -12 0
7 9 21 0
-7 -9 -21 0
4 7 8 0
-4 -7 -8 0
8 13 0
-8 -13 0
8 9 22 0
-8 -9 -22 0
5 7 9 0
-5 -7 -9 0
8 9 14 0
-8 -9 -14 0
9 23 0
-9 -23 0
6 7 10 0
-6 -7 -10 0
8 10 15 0
-8 -10 -15 0
7 11 0
-7 -11 0
8 11 16 0
-8 -11 -16 0
8 12 17 0
-8 -12 -17 0
7 9 13 0
-7 -9 -13 0
8 13 18 0
-8 -13 -18 0
1 6 14 0
-1 -6 -14 0
7 10 14 0
-7 -10 -14 0
8 14 19 0
-8 -14 -19 0
2 6 15 0
-2 -6 -15 0
7 11 15 0
-7 -11 -15 0
8 15 20 0
-8 -15 -20 0
3 6 16 0
-3 -6 -16 0
7 12 16 0
-7 -12 -16 0
8 16 21 0
-8 -16 -21 0
4 6 17 0
-4 -6 -17 0
7 13 17 0
-7 -13 -17 0
8 17 22 0
-8 -17 -22 0
5 6 18 0
-5 -6 -18 0
7 14 18 0
-7 -14 -18 0
8 18 23 0
-8 -18 -23 0
6 19 0
-6 -19 0
7 15 19 0
-7 -15 -19 0
6 7 20 0
-6 -7 -20 0
7 16 20 0
-7 -16 -20 0
6 8 21 0
-6 -8 -21 0
7 17 21 0
-7 -17 -21 0
6 9 22 0
-6 -9 -22 0
7 18 22 0
-7 -18 -22 0
1 5 23 0
-1 -5 -23 0
6 10 23 0
-6 -10 -23 0
7 19 23 0
-7 -19 -23 0
