certificates/rado_a9_c67_N23.drat
-19 -23 0
7 8 19 0
8 19 0
d 7 8 19 0
-23 0
9 0
19 0
-6 0
-5 0
10 0
1 0
18 0
-15 0
-4 0
2 0
17 0
-16 0
-3 0
0
